unsat
(define-fun f ((x0 (BitVec 64))) (BitVec 64) (bvadd x0 (bvadd x0 #b0000000000000000000000000000000000000000000000000000000000000001)))
(define-fun f ((x0 (BitVec 64))) (BitVec 64) (bvadd x0 (bvadd x0 #b0000000000000000000000000000000000000000000000000000000000000001)))
int-arith7.sl running time : 0 m 2.159785889 s
times : 2.159785889
